(set-logic ALL)
(declare-const k Int)
(declare-fun s () (_ BitVec k))
(declare-fun t () (_ BitVec k))
(assert (distinct (bvudiv s (bvand (_ bv1 k) (bvsub t s))) (bvudiv s (bvand t (bvlshr (_ bv1 k) s)))))
(check-sat)
